(declare-const _a_0_ Real)
(declare-const _a_1_ Real)
(declare-const _a_2_ Real)
(assert (forall ((r_0 Real) (q_0 Real) (n_0 Real) (p_0 Real) ) (=> (and (>= (+ (* 1 r_0) (* 0 1) ) 0)(>= (+ (* 2. p_0) (* 1 q_0) (* -1. 1) (* -1 r_0) ) 0)(>= (+ (* 1 (* n_0 q_0)) (* -1 (*  p_0   p_0  )) (* -1 (* q_0 r_0)) ) 0)(>= (+ (* 1 (*  p_0   p_0  )) (* 1 (* q_0 r_0)) (* -1 (* n_0 q_0)) ) 0)(>= (+ (* -1 q_0) (* 4. 1) ) 0)) (and (>= (+ (* 1 n_0) (* -1 (*  p_0   p_0  )) ) 0)))))
(assert (forall ((r_0 Real) (q_0 Real) (n_0 Real) (p_0 Real) ) (=> (and (>= (+ (* 1 n_0) (* 0 1) ) 0)) (and (>= (* 0 1)  0)))))
(assert (forall ((r_0 Real) (q_0 Real) (n_0 Real) (p_0 Real) ) (=> (and (>= (+ (* 1 n_0) (* 0 1) ) 0)) (and (>= (* 0 1)  0)))))
(assert (forall ((r_0 Real) (q_0 Real) (n_0 Real) (p_0 Real) ) (=> (and (>= (+ (* 1 n_0) (* 0 1) ) 0)) (and (>= (* 0 n_0)  0)))))
(assert (forall ((r_0 Real) (q_0 Real) (n_0 Real) (p_0 Real) ) (=> (and (>= (+ (* 1 n_0) (* 0 1) ) 0)) (and (>= (* 0 n_0)  0)))))
(assert (forall ((r_0 Real) (q_0 Real) (n_0 Real) (p_0 Real) ) (=> (and (>= (+ (* 1 n_0) (* 0 1) ) 0)) (and (>= (+ (* 1 n_0) (* 0 1) ) 0)))))
(assert (forall ((r_0 Real) (q_0 Real) (n_0 Real) (p_0 Real) ) (=> (and (>= (+ (* 1 n_0) (* 0 1) ) 0)) (and (>= (+ (* (+ _a_0_ (* 1. _a_1_)) 1) (* _a_2_ n_0) ) 0)))))
(assert (forall ((r_0 Real) (q_0 Real) (n_0 Real) (p_0 Real) ) (=> (and (>= (+ (* 1 r_0) (* 0 1) ) 0)(>= (+ (* 2. p_0) (* 1 q_0) (* -1. 1) (* -1 r_0) ) 0)(>= (+ (* 1 (* n_0 q_0)) (* -1 (*  p_0   p_0  )) (* -1 (* q_0 r_0)) ) 0)(>= (+ (* 1 (*  p_0   p_0  )) (* 1 (* q_0 r_0)) (* -1 (* n_0 q_0)) ) 0)(>= (+ (* 1 q_0) (* -4. 1) ) 0)(>= (+ (* 1 r_0) (* -1 p_0) (* -0.25 q_0) ) 0)) (and (>= (+ (* 1 r_0) (* -1 p_0) (* -0.25 q_0) (* 0 1) ) 0)))))
(assert (forall ((r_0 Real) (q_0 Real) (n_0 Real) (p_0 Real) ) (=> (and (>= (+ (* 1 r_0) (* 0 1) ) 0)(>= (+ (* 2. p_0) (* 1 q_0) (* -1. 1) (* -1 r_0) ) 0)(>= (+ (* 1 (* n_0 q_0)) (* -1 (*  p_0   p_0  )) (* -1 (* q_0 r_0)) ) 0)(>= (+ (* 1 (*  p_0   p_0  )) (* 1 (* q_0 r_0)) (* -1 (* n_0 q_0)) ) 0)(>= (+ (* 1 q_0) (* -4. 1) ) 0)(>= (+ (* 1 r_0) (* -1 p_0) (* -0.25 q_0) ) 0)) (and (>= (+ (* 2. p_0) (* 1. q_0) (* -1. 1) (* -1 r_0) ) 0)))))
(assert (forall ((r_0 Real) (q_0 Real) (n_0 Real) (p_0 Real) ) (=> (and (>= (+ (* 1 r_0) (* 0 1) ) 0)(>= (+ (* 2. p_0) (* 1 q_0) (* -1. 1) (* -1 r_0) ) 0)(>= (+ (* 1 (* n_0 q_0)) (* -1 (*  p_0   p_0  )) (* -1 (* q_0 r_0)) ) 0)(>= (+ (* 1 (*  p_0   p_0  )) (* 1 (* q_0 r_0)) (* -1 (* n_0 q_0)) ) 0)(>= (+ (* 1 q_0) (* -4. 1) ) 0)(>= (+ (* 1 r_0) (* -1 p_0) (* -0.25 q_0) ) 0)) (and (>= (+ (* 0.25 (* n_0 q_0)) (* -0.25 (*  p_0   p_0  )) (* 0 (* p_0 q_0)) (* 0 (*  q_0   q_0  )) (* -0.25 (* q_0 r_0)) ) 0)))))
(assert (forall ((r_0 Real) (q_0 Real) (n_0 Real) (p_0 Real) ) (=> (and (>= (+ (* 1 r_0) (* 0 1) ) 0)(>= (+ (* 2. p_0) (* 1 q_0) (* -1. 1) (* -1 r_0) ) 0)(>= (+ (* 1 (* n_0 q_0)) (* -1 (*  p_0   p_0  )) (* -1 (* q_0 r_0)) ) 0)(>= (+ (* 1 (*  p_0   p_0  )) (* 1 (* q_0 r_0)) (* -1 (* n_0 q_0)) ) 0)(>= (+ (* 1 q_0) (* -4. 1) ) 0)(>= (+ (* 1 r_0) (* -1 p_0) (* -0.25 q_0) ) 0)) (and (>= (+ (* 0.25 (*  p_0   p_0  )) (* 0 (* p_0 q_0)) (* 0 (*  q_0   q_0  )) (* 0.25 (* q_0 r_0)) (* -0.25 (* n_0 q_0)) ) 0)))))
(assert (forall ((r_0 Real) (q_0 Real) (n_0 Real) (p_0 Real) ) (=> (and (>= (+ (* 1 r_0) (* 0 1) ) 0)(>= (+ (* 2. p_0) (* 1 q_0) (* -1. 1) (* -1 r_0) ) 0)(>= (+ (* 1 (* n_0 q_0)) (* -1 (*  p_0   p_0  )) (* -1 (* q_0 r_0)) ) 0)(>= (+ (* 1 (*  p_0   p_0  )) (* 1 (* q_0 r_0)) (* -1 (* n_0 q_0)) ) 0)(>= (+ (* 1 q_0) (* -4. 1) ) 0)(>= (+ (* -1 r_0) (* 1 p_0) (* 0.25 q_0) ) 0)) (and (>= (+ (* 1 r_0) (* 0 1) ) 0)))))
(assert (forall ((r_0 Real) (q_0 Real) (n_0 Real) (p_0 Real) ) (=> (and (>= (+ (* 1 r_0) (* 0 1) ) 0)(>= (+ (* 2. p_0) (* 1 q_0) (* -1. 1) (* -1 r_0) ) 0)(>= (+ (* 1 (* n_0 q_0)) (* -1 (*  p_0   p_0  )) (* -1 (* q_0 r_0)) ) 0)(>= (+ (* 1 (*  p_0   p_0  )) (* 1 (* q_0 r_0)) (* -1 (* n_0 q_0)) ) 0)(>= (+ (* 1 q_0) (* -4. 1) ) 0)(>= (+ (* -1 r_0) (* 1 p_0) (* 0.25 q_0) ) 0)) (and (>= (+ (* 1. p_0) (* 0.25 q_0) (* -1. 1) (* -1 r_0) ) 0)))))
(assert (forall ((r_0 Real) (q_0 Real) (n_0 Real) (p_0 Real) ) (=> (and (>= (+ (* 1 r_0) (* 0 1) ) 0)(>= (+ (* 2. p_0) (* 1 q_0) (* -1. 1) (* -1 r_0) ) 0)(>= (+ (* 1 (* n_0 q_0)) (* -1 (*  p_0   p_0  )) (* -1 (* q_0 r_0)) ) 0)(>= (+ (* 1 (*  p_0   p_0  )) (* 1 (* q_0 r_0)) (* -1 (* n_0 q_0)) ) 0)(>= (+ (* 1 q_0) (* -4. 1) ) 0)(>= (+ (* -1 r_0) (* 1 p_0) (* 0.25 q_0) ) 0)) (and (>= (+ (* 0.25 (* n_0 q_0)) (* -0.25 (*  p_0   p_0  )) (* -0.25 (* q_0 r_0)) ) 0)))))
(assert (forall ((r_0 Real) (q_0 Real) (n_0 Real) (p_0 Real) ) (=> (and (>= (+ (* 1 r_0) (* 0 1) ) 0)(>= (+ (* 2. p_0) (* 1 q_0) (* -1. 1) (* -1 r_0) ) 0)(>= (+ (* 1 (* n_0 q_0)) (* -1 (*  p_0   p_0  )) (* -1 (* q_0 r_0)) ) 0)(>= (+ (* 1 (*  p_0   p_0  )) (* 1 (* q_0 r_0)) (* -1 (* n_0 q_0)) ) 0)(>= (+ (* 1 q_0) (* -4. 1) ) 0)(>= (+ (* -1 r_0) (* 1 p_0) (* 0.25 q_0) ) 0)) (and (>= (+ (* 0.25 (*  p_0   p_0  )) (* 0.25 (* q_0 r_0)) (* -0.25 (* n_0 q_0)) ) 0)))))
(assert (forall ((r_0 Real) (q_0 Real) (n_0 Real) (p_0 Real) ) (=> (and (>= (+ (* 0 1) (* -1 p_0) ) 0)(>= (+ (* 1 p_0) (* 0 1) ) 0)(>= (+ (* 1 n_0) (* -1 r_0) ) 0)(>= (+ (* 1 r_0) (* -1 n_0) ) 0)(>= (+ (* 1 n_0) (* 0 1) ) 0)(>= (+ (* _a_0_ 1) (* _a_1_ q_0) (* _a_2_ n_0) ) 0)(>= (+ (* -1 n_0) (* 1 q_0) ) 0)) (and (>= (+ (* 1 r_0) (* 0 1) ) 0)))))
(assert (forall ((r_0 Real) (q_0 Real) (n_0 Real) (p_0 Real) ) (=> (and (>= (+ (* 0 1) (* -1 p_0) ) 0)(>= (+ (* 1 p_0) (* 0 1) ) 0)(>= (+ (* 1 n_0) (* -1 r_0) ) 0)(>= (+ (* 1 r_0) (* -1 n_0) ) 0)(>= (+ (* 1 n_0) (* 0 1) ) 0)(>= (+ (* _a_0_ 1) (* _a_1_ q_0) (* _a_2_ n_0) ) 0)(>= (+ (* -1 n_0) (* 1 q_0) ) 0)) (and (>= (+ (* 2. p_0) (* 1 q_0) (* -1. 1) (* -1 r_0) ) 0)))))
(assert (forall ((r_0 Real) (q_0 Real) (n_0 Real) (p_0 Real) ) (=> (and (>= (+ (* 0 1) (* -1 p_0) ) 0)(>= (+ (* 1 p_0) (* 0 1) ) 0)(>= (+ (* 1 n_0) (* -1 r_0) ) 0)(>= (+ (* 1 r_0) (* -1 n_0) ) 0)(>= (+ (* 1 n_0) (* 0 1) ) 0)(>= (+ (* _a_0_ 1) (* _a_1_ q_0) (* _a_2_ n_0) ) 0)(>= (+ (* -1 n_0) (* 1 q_0) ) 0)) (and (>= (+ (* 1 (* n_0 q_0)) (* -1 (*  p_0   p_0  )) (* -1 (* q_0 r_0)) ) 0)))))
(assert (forall ((r_0 Real) (q_0 Real) (n_0 Real) (p_0 Real) ) (=> (and (>= (+ (* 0 1) (* -1 p_0) ) 0)(>= (+ (* 1 p_0) (* 0 1) ) 0)(>= (+ (* 1 n_0) (* -1 r_0) ) 0)(>= (+ (* 1 r_0) (* -1 n_0) ) 0)(>= (+ (* 1 n_0) (* 0 1) ) 0)(>= (+ (* _a_0_ 1) (* _a_1_ q_0) (* _a_2_ n_0) ) 0)(>= (+ (* -1 n_0) (* 1 q_0) ) 0)) (and (>= (+ (* 1 (*  p_0   p_0  )) (* 1 (* q_0 r_0)) (* -1 (* n_0 q_0)) ) 0)))))
(assert (forall ((r_0 Real) (q_0 Real) (n_0 Real) (p_0 Real) ) (=> (and (>= (+ (* 0 1) (* -1 p_0) ) 0)(>= (+ (* 1 p_0) (* 0 1) ) 0)(>= (+ (* 1 n_0) (* -1 r_0) ) 0)(>= (+ (* 1 r_0) (* -1 n_0) ) 0)(>= (+ (* 1 n_0) (* 0 1) ) 0)(>= (+ (* _a_0_ 1) (* _a_1_ q_0) (* _a_2_ n_0) ) 0)(>= (+ (* 1 n_0) (* -1 q_0) ) 0)) (and (>= (+ (* 0 1) (* -1 p_0) ) 0)))))
(assert (forall ((r_0 Real) (q_0 Real) (n_0 Real) (p_0 Real) ) (=> (and (>= (+ (* 0 1) (* -1 p_0) ) 0)(>= (+ (* 1 p_0) (* 0 1) ) 0)(>= (+ (* 1 n_0) (* -1 r_0) ) 0)(>= (+ (* 1 r_0) (* -1 n_0) ) 0)(>= (+ (* 1 n_0) (* 0 1) ) 0)(>= (+ (* _a_0_ 1) (* _a_1_ q_0) (* _a_2_ n_0) ) 0)(>= (+ (* 1 n_0) (* -1 q_0) ) 0)) (and (>= (+ (* 1 p_0) (* 0 1) ) 0)))))
(assert (forall ((r_0 Real) (q_0 Real) (n_0 Real) (p_0 Real) ) (=> (and (>= (+ (* 0 1) (* -1 p_0) ) 0)(>= (+ (* 1 p_0) (* 0 1) ) 0)(>= (+ (* 1 n_0) (* -1 r_0) ) 0)(>= (+ (* 1 r_0) (* -1 n_0) ) 0)(>= (+ (* 1 n_0) (* 0 1) ) 0)(>= (+ (* _a_0_ 1) (* _a_1_ q_0) (* _a_2_ n_0) ) 0)(>= (+ (* 1 n_0) (* -1 q_0) ) 0)) (and (>= (+ (* 1 n_0) (* -1 r_0) ) 0)))))
(assert (forall ((r_0 Real) (q_0 Real) (n_0 Real) (p_0 Real) ) (=> (and (>= (+ (* 0 1) (* -1 p_0) ) 0)(>= (+ (* 1 p_0) (* 0 1) ) 0)(>= (+ (* 1 n_0) (* -1 r_0) ) 0)(>= (+ (* 1 r_0) (* -1 n_0) ) 0)(>= (+ (* 1 n_0) (* 0 1) ) 0)(>= (+ (* _a_0_ 1) (* _a_1_ q_0) (* _a_2_ n_0) ) 0)(>= (+ (* 1 n_0) (* -1 q_0) ) 0)) (and (>= (+ (* 1 r_0) (* -1 n_0) ) 0)))))
(assert (forall ((r_0 Real) (q_0 Real) (n_0 Real) (p_0 Real) ) (=> (and (>= (+ (* 0 1) (* -1 p_0) ) 0)(>= (+ (* 1 p_0) (* 0 1) ) 0)(>= (+ (* 1 n_0) (* -1 r_0) ) 0)(>= (+ (* 1 r_0) (* -1 n_0) ) 0)(>= (+ (* 1 n_0) (* 0 1) ) 0)(>= (+ (* _a_0_ 1) (* _a_1_ q_0) (* _a_2_ n_0) ) 0)(>= (+ (* 1 n_0) (* -1 q_0) ) 0)) (and (>= (+ (* 1 n_0) (* 0 1) ) 0)))))
(assert (forall ((r_0 Real) (q_0 Real) (n_0 Real) (p_0 Real) ) (=> (and (>= (+ (* 0 1) (* -1 p_0) ) 0)(>= (+ (* 1 p_0) (* 0 1) ) 0)(>= (+ (* 1 n_0) (* -1 r_0) ) 0)(>= (+ (* 1 r_0) (* -1 n_0) ) 0)(>= (+ (* 1 n_0) (* 0 1) ) 0)(>= (+ (* _a_0_ 1) (* _a_1_ q_0) (* _a_2_ n_0) ) 0)(>= (+ (* 1 n_0) (* -1 q_0) ) 0)) (and (>= (+ (* _a_0_ 1) (* (* 4. _a_1_) q_0) (* _a_2_ n_0) ) 0)))))
(check-sat)
(get-model)

